Route #1: 20 69 21 28 61 73 49 33 
Route #2: 30 4 67 10 35 34 
Route #3: 29 45 46 8 53 38 12 
Route #4: 44 50 25 55 18 9 32 
Route #5: 52 19 54 13 57 15 37 36 48 68 
Route #6: 60 70 71 47 5 27 11 7 
Route #7: 26 14 59 66 65 72 39 
Route #8: 22 42 64 43 41 23 56 75 
Route #9: 74 62 1 63 16 3 40 17 
Route #10: 58 31 24 51 2 6 
cost 1176.71
execution_time 57.492
